10
0 99 17 37 87 56 49 36 75 20 
6 0 17 85 67 1 34 84 39 7 
2 20 0 16 57 4 74 55 33 42 
72 21 19 0 8 46 4 7 44 86 
34 73 10 97 0 70 84 40 50 71 
47 12 90 46 14 0 29 69 4 93 
74 8 4 42 61 95 0 14 71 35 
26 83 65 8 62 7 15 0 90 65 
21 98 17 10 97 14 78 1 0 28 
13 88 71 43 75 47 29 45 70 0 
